SAT
85 11 39 -76 41 -36 -99 100 -77 -10 4 -14 -23 70 -26 -34 1 -37 65 -33 -69 -49 -79 48 25 -59 -89 91 -43 46 35 95 -19 71 -64 8 -12 -96 61 -98 75 84 -27 -93 21 -52 44 74 -92 17 97 94 -9 -88 -51 -3 -42 -50 67 80 -7 -73 -30 56 86 5 -13 45 66 32 -60 -72 -20 58 -29 -24 90 54 31 63 -38 -87 28 -55 -6 -2 -16 -82 22 -53 -78 15 57 47 -83 -62 -81 -68 -40 18 0
